c CNF file corresponding to a (partial) station packing problem.
p cnf 2956 229
1 2 3 4 5 6 7 8 9 10 11 12 13 14 0
-1 -2 0
-1 -3 0
-1 -4 0
-1 -5 0
-1 -6 0
-1 -7 0
-1 -8 0
-1 -9 0
-1 -10 0
-1 -11 0
-1 -12 0
-1 -13 0
-1 -14 0
-2 -3 0
-2 -4 0
-2 -5 0
-2 -6 0
-2 -7 0
-2 -8 0
-2 -9 0
-2 -10 0
-2 -11 0
-2 -12 0
-2 -13 0
-2 -14 0
-3 -4 0
-3 -5 0
-3 -6 0
-3 -7 0
-3 -8 0
-3 -9 0
-3 -10 0
-3 -11 0
-3 -12 0
-3 -13 0
-3 -14 0
-4 -5 0
-4 -6 0
-4 -7 0
-4 -8 0
-4 -9 0
-4 -10 0
-4 -11 0
-4 -12 0
-4 -13 0
-4 -14 0
-5 -6 0
-5 -7 0
-5 -8 0
-5 -9 0
-5 -10 0
-5 -11 0
-5 -12 0
-5 -13 0
-5 -14 0
-6 -7 0
-6 -8 0
-6 -9 0
-6 -10 0
-6 -11 0
-6 -12 0
-6 -13 0
-6 -14 0
-7 -8 0
-7 -9 0
-7 -10 0
-7 -11 0
-7 -12 0
-7 -13 0
-7 -14 0
-8 -9 0
-8 -10 0
-8 -11 0
-8 -12 0
-8 -13 0
-8 -14 0
-9 -10 0
-9 -11 0
-9 -12 0
-9 -13 0
-9 -14 0
-10 -11 0
-10 -12 0
-10 -13 0
-10 -14 0
-11 -12 0
-11 -13 0
-11 -14 0
-12 -13 0
-12 -14 0
-13 -14 0
2940 2941 2942 2943 2944 2945 2946 2947 2948 2949 2950 2951 2952 2953 2954 2955 2956 0
-2940 -2941 0
-2940 -2942 0
-2940 -2943 0
-2940 -2944 0
-2940 -2945 0
-2940 -2946 0
-2940 -2947 0
-2940 -2948 0
-2940 -2949 0
-2940 -2950 0
-2940 -2951 0
-2940 -2952 0
-2940 -2953 0
-2940 -2954 0
-2940 -2955 0
-2940 -2956 0
-2941 -2942 0
-2941 -2943 0
-2941 -2944 0
-2941 -2945 0
-2941 -2946 0
-2941 -2947 0
-2941 -2948 0
-2941 -2949 0
-2941 -2950 0
-2941 -2951 0
-2941 -2952 0
-2941 -2953 0
-2941 -2954 0
-2941 -2955 0
-2941 -2956 0
-2942 -2943 0
-2942 -2944 0
-2942 -2945 0
-2942 -2946 0
-2942 -2947 0
-2942 -2948 0
-2942 -2949 0
-2942 -2950 0
-2942 -2951 0
-2942 -2952 0
-2942 -2953 0
-2942 -2954 0
-2942 -2955 0
-2942 -2956 0
-2943 -2944 0
-2943 -2945 0
-2943 -2946 0
-2943 -2947 0
-2943 -2948 0
-2943 -2949 0
-2943 -2950 0
-2943 -2951 0
-2943 -2952 0
-2943 -2953 0
-2943 -2954 0
-2943 -2955 0
-2943 -2956 0
-2944 -2945 0
-2944 -2946 0
-2944 -2947 0
-2944 -2948 0
-2944 -2949 0
-2944 -2950 0
-2944 -2951 0
-2944 -2952 0
-2944 -2953 0
-2944 -2954 0
-2944 -2955 0
-2944 -2956 0
-2945 -2946 0
-2945 -2947 0
-2945 -2948 0
-2945 -2949 0
-2945 -2950 0
-2945 -2951 0
-2945 -2952 0
-2945 -2953 0
-2945 -2954 0
-2945 -2955 0
-2945 -2956 0
-2946 -2947 0
-2946 -2948 0
-2946 -2949 0
-2946 -2950 0
-2946 -2951 0
-2946 -2952 0
-2946 -2953 0
-2946 -2954 0
-2946 -2955 0
-2946 -2956 0
-2947 -2948 0
-2947 -2949 0
-2947 -2950 0
-2947 -2951 0
-2947 -2952 0
-2947 -2953 0
-2947 -2954 0
-2947 -2955 0
-2947 -2956 0
-2948 -2949 0
-2948 -2950 0
-2948 -2951 0
-2948 -2952 0
-2948 -2953 0
-2948 -2954 0
-2948 -2955 0
-2948 -2956 0
-2949 -2950 0
-2949 -2951 0
-2949 -2952 0
-2949 -2953 0
-2949 -2954 0
-2949 -2955 0
-2949 -2956 0
-2950 -2951 0
-2950 -2952 0
-2950 -2953 0
-2950 -2954 0
-2950 -2955 0
-2950 -2956 0
-2951 -2952 0
-2951 -2953 0
-2951 -2954 0
-2951 -2955 0
-2951 -2956 0
-2952 -2953 0
-2952 -2954 0
-2952 -2955 0
-2952 -2956 0
-2953 -2954 0
-2953 -2955 0
-2953 -2956 0
-2954 -2955 0
-2954 -2956 0
-2955 -2956 0
